NAME: instance_3296
TYPE: TSP
DIMENSION: 20
EDGE_WEIGHT_TYPE: EUC_2D
NODE_COORD_SECTION
0 30.92 44.57
1 71.51 72.12
2 6.57 5.93
3 64.46 35.41
4 21.65 67.01
5 3.98 25.60
6 1.30 99.69
7 92.19 93.80
8 93.92 94.40
9 42.47 68.54
10 25.59 14.60
11 19.33 96.29
12 48.31 78.94
13 17.43 54.95
14 87.12 88.29
15 41.50 58.29
16 55.16 60.38
17 2.11 8.90
18 87.11 23.17
19 35.84 83.24
EOF
